c 
c U(n,d) graph
c graph gen seed     : 10436
c number of vertices : 80
c max number of edges: 3160
c Euclidean distance : 0.400000
c data structure     : sparse
c
c           Graph Stats
c number of vertices  : 80
c nonisolated vertices: 80
c number of edges     : 1121
c edge density        : 0.354747
c max degree          : 45
c avg degree          : 28.02
c min degree          : 11
p col 80 1121
e 1 80
e 1 79
e 1 74
e 1 73
e 1 72
e 1 70
e 1 69
e 1 68
e 1 66
e 1 63
e 1 62
e 1 59
e 1 57
e 1 56
e 1 51
e 1 49
e 1 45
e 1 41
e 1 39
e 1 35
e 1 33
e 1 30
e 1 28
e 1 27
e 1 25
e 1 24
e 1 21
e 1 14
e 1 7
e 1 6
e 1 5
e 2 79
e 2 78
e 2 71
e 2 66
e 2 65
e 2 60
e 2 55
e 2 54
e 2 53
e 2 45
e 2 44
e 2 37
e 2 34
e 2 32
e 2 31
e 2 29
e 2 28
e 2 26
e 2 25
e 2 23
e 2 22
e 2 20
e 2 17
e 2 8
e 2 7
e 2 4
e 2 3
e 3 79
e 3 78
e 3 76
e 3 71
e 3 66
e 3 64
e 3 61
e 3 58
e 3 57
e 3 54
e 3 53
e 3 49
e 3 48
e 3 45
e 3 43
e 3 42
e 3 37
e 3 34
e 3 29
e 3 27
e 3 26
e 3 19
e 3 18
e 3 11
e 3 7
e 3 5
e 3 4
e 4 78
e 4 76
e 4 71
e 4 66
e 4 64
e 4 61
e 4 58
e 4 57
e 4 54
e 4 53
e 4 48
e 4 45
e 4 43
e 4 42
e 4 37
e 4 34
e 4 29
e 4 26
e 4 19
e 4 18
e 4 11
e 4 7
e 5 80
e 5 79
e 5 76
e 5 74
e 5 73
e 5 72
e 5 71
e 5 70
e 5 69
e 5 68
e 5 66
e 5 63
e 5 62
e 5 61
e 5 59
e 5 57
e 5 52
e 5 51
e 5 50
e 5 49
e 5 45
e 5 41
e 5 39
e 5 37
e 5 35
e 5 34
e 5 33
e 5 30
e 5 28
e 5 27
e 5 25
e 5 21
e 5 14
e 5 12
e 5 7
e 5 6
e 6 80
e 6 74
e 6 72
e 6 70
e 6 69
e 6 68
e 6 63
e 6 62
e 6 59
e 6 57
e 6 56
e 6 49
e 6 39
e 6 35
e 6 33
e 6 30
e 6 27
e 6 24
e 6 21
e 6 14
e 7 80
e 7 79
e 7 78
e 7 76
e 7 74
e 7 71
e 7 70
e 7 69
e 7 68
e 7 66
e 7 62
e 7 61
e 7 58
e 7 57
e 7 54
e 7 53
e 7 49
e 7 45
e 7 41
e 7 37
e 7 34
e 7 29
e 7 28
e 7 27
e 7 26
e 7 25
e 7 21
e 7 19
e 7 18
e 7 14
e 8 79
e 8 78
e 8 77
e 8 75
e 8 74
e 8 73
e 8 71
e 8 67
e 8 65
e 8 60
e 8 55
e 8 52
e 8 51
e 8 50
e 8 44
e 8 41
e 8 38
e 8 36
e 8 34
e 8 32
e 8 31
e 8 29
e 8 28
e 8 27
e 8 25
e 8 23
e 8 21
e 8 20
e 8 17
e 8 16
e 8 13
e 8 12
e 8 10
e 8 9
e 9 77
e 9 75
e 9 73
e 9 67
e 9 52
e 9 51
e 9 50
e 9 47
e 9 46
e 9 41
e 9 40
e 9 38
e 9 36
e 9 23
e 9 21
e 9 16
e 9 15
e 9 13
e 9 12
e 9 10
e 10 79
e 10 78
e 10 77
e 10 75
e 10 73
e 10 71
e 10 67
e 10 65
e 10 60
e 10 55
e 10 52
e 10 51
e 10 50
e 10 44
e 10 41
e 10 38
e 10 36
e 10 32
e 10 31
e 10 29
e 10 28
e 10 25
e 10 23
e 10 20
e 10 17
e 10 16
e 10 13
e 10 12
e 11 76
e 11 66
e 11 64
e 11 61
e 11 58
e 11 54
e 11 53
e 11 49
e 11 48
e 11 45
e 11 43
e 11 42
e 11 37
e 11 26
e 11 19
e 11 18
e 12 79
e 12 77
e 12 75
e 12 74
e 12 73
e 12 72
e 12 71
e 12 70
e 12 67
e 12 65
e 12 63
e 12 60
e 12 55
e 12 52
e 12 51
e 12 50
e 12 47
e 12 46
e 12 41
e 12 40
e 12 38
e 12 36
e 12 34
e 12 31
e 12 28
e 12 27
e 12 25
e 12 23
e 12 21
e 12 20
e 12 17
e 12 16
e 12 15
e 12 13
e 13 77
e 13 75
e 13 74
e 13 73
e 13 72
e 13 67
e 13 65
e 13 63
e 13 52
e 13 51
e 13 50
e 13 47
e 13 46
e 13 41
e 13 40
e 13 38
e 13 36
e 13 28
e 13 25
e 13 23
e 13 21
e 13 17
e 13 16
e 13 15
e 14 80
e 14 76
e 14 70
e 14 69
e 14 68
e 14 66
e 14 62
e 14 61
e 14 59
e 14 57
e 14 56
e 14 49
e 14 45
e 14 35
e 14 33
e 14 30
e 14 27
e 14 24
e 14 19
e 14 18
e 15 77
e 15 75
e 15 73
e 15 67
e 15 63
e 15 52
e 15 51
e 15 50
e 15 47
e 15 46
e 15 40
e 15 38
e 15 36
e 15 21
e 15 16
e 16 79
e 16 77
e 16 75
e 16 74
e 16 73
e 16 67
e 16 65
e 16 60
e 16 55
e 16 52
e 16 51
e 16 50
e 16 47
e 16 46
e 16 41
e 16 40
e 16 38
e 16 36
e 16 32
e 16 31
e 16 28
e 16 25
e 16 23
e 16 21
e 16 20
e 16 17
e 17 79
e 17 78
e 17 77
e 17 73
e 17 71
e 17 67
e 17 65
e 17 60
e 17 55
e 17 52
e 17 51
e 17 50
e 17 44
e 17 41
e 17 38
e 17 36
e 17 34
e 17 32
e 17 31
e 17 29
e 17 28
e 17 27
e 17 25
e 17 23
e 17 22
e 17 21
e 17 20
e 18 76
e 18 68
e 18 66
e 18 64
e 18 61
e 18 58
e 18 57
e 18 54
e 18 53
e 18 49
e 18 48
e 18 45
e 18 43
e 18 42
e 18 37
e 18 30
e 18 19
e 19 80
e 19 76
e 19 68
e 19 66
e 19 64
e 19 62
e 19 61
e 19 58
e 19 57
e 19 54
e 19 53
e 19 49
e 19 48
e 19 45
e 19 43
e 19 42
e 19 37
e 19 30
e 19 27
e 19 26
e 20 79
e 20 78
e 20 77
e 20 73
e 20 71
e 20 67
e 20 65
e 20 60
e 20 55
e 20 52
e 20 51
e 20 50
e 20 44
e 20 41
e 20 38
e 20 37
e 20 34
e 20 32
e 20 31
e 20 29
e 20 28
e 20 25
e 20 23
e 20 22
e 21 80
e 21 79
e 21 77
e 21 75
e 21 74
e 21 73
e 21 72
e 21 71
e 21 70
e 21 69
e 21 67
e 21 65
e 21 63
e 21 62
e 21 57
e 21 52
e 21 51
e 21 50
e 21 47
e 21 46
e 21 41
e 21 40
e 21 39
e 21 38
e 21 36
e 21 35
e 21 28
e 21 27
e 21 25
e 21 23
e 22 78
e 22 71
e 22 65
e 22 60
e 22 55
e 22 53
e 22 44
e 22 37
e 22 34
e 22 32
e 22 31
e 22 29
e 22 26
e 23 79
e 23 78
e 23 77
e 23 75
e 23 73
e 23 71
e 23 67
e 23 65
e 23 60
e 23 55
e 23 52
e 23 51
e 23 50
e 23 44
e 23 41
e 23 38
e 23 36
e 23 34
e 23 32
e 23 31
e 23 29
e 23 28
e 23 25
e 24 68
e 24 62
e 24 59
e 24 56
e 24 39
e 24 35
e 24 33
e 24 30
e 25 80
e 25 79
e 25 78
e 25 77
e 25 75
e 25 74
e 25 73
e 25 72
e 25 71
e 25 70
e 25 69
e 25 67
e 25 66
e 25 65
e 25 63
e 25 60
e 25 57
e 25 55
e 25 52
e 25 51
e 25 50
e 25 45
e 25 44
e 25 41
e 25 38
e 25 37
e 25 36
e 25 34
e 25 31
e 25 29
e 25 28
e 25 27
e 26 79
e 26 78
e 26 71
e 26 66
e 26 64
e 26 60
e 26 58
e 26 57
e 26 54
e 26 53
e 26 48
e 26 45
e 26 44
e 26 37
e 26 34
e 26 29
e 26 28
e 26 27
e 27 80
e 27 79
e 27 78
e 27 76
e 27 74
e 27 73
e 27 72
e 27 71
e 27 70
e 27 69
e 27 68
e 27 66
e 27 65
e 27 63
e 27 62
e 27 61
e 27 57
e 27 53
e 27 52
e 27 51
e 27 50
e 27 49
e 27 45
e 27 41
e 27 37
e 27 35
e 27 34
e 27 33
e 27 29
e 27 28
e 28 80
e 28 79
e 28 78
e 28 77
e 28 74
e 28 73
e 28 72
e 28 71
e 28 70
e 28 69
e 28 67
e 28 66
e 28 65
e 28 63
e 28 62
e 28 60
e 28 57
e 28 55
e 28 52
e 28 51
e 28 50
e 28 45
e 28 44
e 28 41
e 28 38
e 28 37
e 28 34
e 28 31
e 28 29
e 29 79
e 29 78
e 29 71
e 29 66
e 29 65
e 29 60
e 29 55
e 29 54
e 29 53
e 29 45
e 29 44
e 29 37
e 29 34
e 29 32
e 29 31
e 30 80
e 30 76
e 30 70
e 30 68
e 30 66
e 30 62
e 30 61
e 30 59
e 30 57
e 30 56
e 30 49
e 30 45
e 30 35
e 30 33
e 31 79
e 31 78
e 31 77
e 31 71
e 31 67
e 31 65
e 31 60
e 31 55
e 31 52
e 31 50
e 31 44
e 31 41
e 31 38
e 31 34
e 31 32
e 32 78
e 32 77
e 32 71
e 32 65
e 32 60
e 32 55
e 32 52
e 32 44
e 32 38
e 33 80
e 33 74
e 33 72
e 33 70
e 33 69
e 33 68
e 33 63
e 33 62
e 33 59
e 33 57
e 33 56
e 33 49
e 33 39
e 33 35
e 34 80
e 34 79
e 34 78
e 34 71
e 34 70
e 34 66
e 34 65
e 34 60
e 34 57
e 34 55
e 34 54
e 34 53
e 34 52
e 34 45
e 34 44
e 34 41
e 34 37
e 35 80
e 35 74
e 35 72
e 35 70
e 35 69
e 35 68
e 35 63
e 35 62
e 35 59
e 35 56
e 35 39
e 36 77
e 36 75
e 36 74
e 36 73
e 36 67
e 36 52
e 36 51
e 36 50
e 36 47
e 36 46
e 36 41
e 36 40
e 36 38
e 37 80
e 37 79
e 37 78
e 37 76
e 37 71
e 37 70
e 37 69
e 37 66
e 37 65
e 37 62
e 37 61
e 37 58
e 37 57
e 37 54
e 37 53
e 37 49
e 37 48
e 37 45
e 37 41
e 38 77
e 38 75
e 38 73
e 38 67
e 38 65
e 38 60
e 38 55
e 38 52
e 38 51
e 38 50
e 38 46
e 38 44
e 38 41
e 39 80
e 39 74
e 39 72
e 39 70
e 39 69
e 39 68
e 39 63
e 39 62
e 39 59
e 39 56
e 40 77
e 40 75
e 40 74
e 40 73
e 40 72
e 40 67
e 40 63
e 40 52
e 40 51
e 40 50
e 40 47
e 40 46
e 40 41
e 41 80
e 41 79
e 41 78
e 41 77
e 41 75
e 41 74
e 41 73
e 41 72
e 41 71
e 41 70
e 41 69
e 41 67
e 41 66
e 41 65
e 41 63
e 41 62
e 41 57
e 41 52
e 41 51
e 41 50
e 41 46
e 42 76
e 42 64
e 42 61
e 42 58
e 42 54
e 42 53
e 42 48
e 42 43
e 43 76
e 43 64
e 43 58
e 43 54
e 43 53
e 43 48
e 44 79
e 44 78
e 44 77
e 44 71
e 44 65
e 44 60
e 44 55
e 44 52
e 45 80
e 45 79
e 45 78
e 45 76
e 45 71
e 45 70
e 45 69
e 45 68
e 45 66
e 45 64
e 45 62
e 45 61
e 45 58
e 45 57
e 45 54
e 45 53
e 45 49
e 46 77
e 46 75
e 46 74
e 46 73
e 46 72
e 46 67
e 46 63
e 46 52
e 46 51
e 46 50
e 46 47
e 47 77
e 47 75
e 47 74
e 47 73
e 47 72
e 47 67
e 47 63
e 47 52
e 47 51
e 47 50
e 48 76
e 48 64
e 48 58
e 48 54
e 48 53
e 49 80
e 49 76
e 49 70
e 49 69
e 49 68
e 49 66
e 49 62
e 49 61
e 49 59
e 49 58
e 49 57
e 49 56
e 50 79
e 50 77
e 50 75
e 50 74
e 50 73
e 50 72
e 50 71
e 50 70
e 50 69
e 50 67
e 50 65
e 50 63
e 50 52
e 50 51
e 51 80
e 51 79
e 51 77
e 51 75
e 51 74
e 51 73
e 51 72
e 51 70
e 51 69
e 51 67
e 51 65
e 51 63
e 51 52
e 52 79
e 52 78
e 52 77
e 52 75
e 52 74
e 52 73
e 52 71
e 52 67
e 52 65
e 52 63
e 52 60
e 52 55
e 53 79
e 53 78
e 53 76
e 53 71
e 53 66
e 53 64
e 53 61
e 53 58
e 53 57
e 53 54
e 54 78
e 54 71
e 54 66
e 54 64
e 54 58
e 55 79
e 55 78
e 55 77
e 55 71
e 55 67
e 55 65
e 55 60
e 56 80
e 56 70
e 56 69
e 56 68
e 56 62
e 56 59
e 57 80
e 57 79
e 57 78
e 57 76
e 57 74
e 57 71
e 57 70
e 57 69
e 57 68
e 57 66
e 57 62
e 57 61
e 57 58
e 58 76
e 58 66
e 58 64
e 58 61
e 59 80
e 59 72
e 59 70
e 59 69
e 59 68
e 59 62
e 60 79
e 60 78
e 60 77
e 60 71
e 60 65
e 61 80
e 61 76
e 61 70
e 61 68
e 61 66
e 61 64
e 61 62
e 62 80
e 62 79
e 62 76
e 62 74
e 62 72
e 62 70
e 62 69
e 62 68
e 62 66
e 62 63
e 63 80
e 63 75
e 63 74
e 63 73
e 63 72
e 63 70
e 63 69
e 63 67
e 64 76
e 65 79
e 65 78
e 65 77
e 65 73
e 65 71
e 65 67
e 66 80
e 66 79
e 66 78
e 66 76
e 66 71
e 66 70
e 66 69
e 66 68
e 67 79
e 67 77
e 67 75
e 67 74
e 67 73
e 67 71
e 68 80
e 68 76
e 68 70
e 68 69
e 69 80
e 69 79
e 69 74
e 69 73
e 69 72
e 69 71
e 69 70
e 70 80
e 70 79
e 70 74
e 70 73
e 70 72
e 70 71
e 71 80
e 71 79
e 71 78
e 72 80
e 72 75
e 72 74
e 72 73
e 73 80
e 73 79
e 73 77
e 73 75
e 73 74
e 74 80
e 74 79
e 74 77
e 74 75
e 75 77
e 76 80
e 77 79
e 78 79
e 79 80
